jobs  (incl. supersource/sink ):	102
RESOURCES
- renewable                 : 2 R
- nonrenewable              : 2 N
- doubly constrained        : 0 D
************************************************************************
PRECEDENCE RELATIONS:
jobnr.    #modes  #successors   successors
1	1	26		2 3 4 5 6 7 8 9 10 11 12 13 14 15 17 18 19 20 23 24 25 28 29 31 43 56 
2	3	16		101 100 99 75 71 70 69 62 58 54 51 50 37 35 26 21 
3	3	15		95 75 72 71 58 55 52 51 49 45 37 36 33 30 27 
4	3	14		101 99 98 75 74 73 72 54 53 46 41 37 36 16 
5	3	13		95 90 75 70 69 61 58 57 51 46 45 35 22 
6	3	18		98 97 96 93 90 85 73 72 70 63 61 60 58 54 52 42 39 38 
7	3	18		100 99 97 95 90 84 73 72 70 68 61 57 54 53 51 47 37 30 
8	3	14		98 95 94 75 72 71 69 63 61 55 50 36 35 27 
9	3	15		101 97 94 74 71 67 63 61 60 59 58 53 48 44 36 
10	3	20		101 100 99 97 96 95 94 93 92 90 86 82 74 72 70 68 67 57 52 45 
11	3	17		101 99 98 93 90 84 75 74 71 70 68 66 61 57 54 51 34 
12	3	14		100 95 94 93 90 88 84 82 70 61 59 57 51 34 
13	3	13		100 96 95 94 90 87 82 70 67 59 52 45 34 
14	3	10		98 95 82 73 63 59 57 46 37 36 
15	3	16		97 95 90 89 86 82 73 71 69 68 66 65 64 52 51 49 
16	3	11		97 90 82 70 69 65 61 59 52 51 42 
17	3	8		98 72 71 68 61 58 40 32 
18	3	11		101 95 92 89 88 71 68 66 55 49 40 
19	3	18		100 95 94 93 90 88 87 86 82 81 78 72 71 68 65 61 57 51 
20	3	9		96 95 94 93 88 80 68 47 40 
21	3	17		98 97 95 94 92 90 85 84 82 81 78 77 74 72 67 63 61 
22	3	16		99 97 94 93 92 87 86 84 82 73 72 71 68 65 63 52 
23	3	13		98 92 90 87 86 84 71 67 66 65 64 57 53 
24	3	12		101 90 84 82 81 77 66 64 61 60 57 51 
25	3	16		96 95 93 92 90 89 87 85 84 83 82 81 65 64 60 59 
26	3	15		98 96 92 91 89 88 86 84 79 78 73 68 67 64 53 
27	3	13		101 99 90 89 88 87 86 84 79 78 70 57 53 
28	3	13		96 95 94 91 90 89 86 84 83 76 65 59 53 
29	3	13		98 97 89 86 85 82 80 70 67 66 65 64 52 
30	3	16		96 94 93 92 91 89 88 86 85 83 82 78 77 69 65 64 
31	3	16		101 97 94 93 91 88 87 86 85 84 82 81 80 76 68 65 
32	3	10		89 88 87 84 83 73 69 65 63 59 
33	3	10		90 84 83 81 78 77 74 64 61 57 
34	3	11		97 91 89 86 85 81 79 78 77 69 63 
35	3	9		87 86 85 82 80 79 68 64 52 
36	3	11		92 90 89 88 86 85 84 83 80 68 65 
37	3	11		93 92 91 87 86 85 81 80 76 66 65 
38	3	10		99 95 91 87 84 80 79 68 67 64 
39	3	10		92 89 88 82 80 79 77 67 66 64 
40	3	9		90 86 84 82 78 77 65 64 57 
41	3	7		94 92 90 82 79 63 52 
42	3	10		100 95 94 87 86 84 83 81 77 64 
43	3	10		97 92 90 86 85 84 78 77 76 67 
44	3	9		93 88 87 84 81 80 79 70 68 
45	3	8		98 89 88 84 80 66 65 64 
46	3	8		94 92 88 87 79 76 68 67 
47	3	8		86 85 83 82 81 77 66 64 
48	3	5		90 82 78 77 57 
49	3	7		100 99 87 84 83 78 76 
50	3	6		91 90 82 80 79 77 
51	3	5		96 92 85 79 67 
52	3	5		88 81 78 77 76 
53	3	5		93 82 81 80 77 
54	3	4		82 81 79 77 
55	3	4		93 86 84 81 
56	3	4		86 84 78 76 
57	3	3		91 85 76 
58	3	3		82 77 76 
59	3	2		77 66 
60	3	2		78 69 
61	3	2		89 80 
62	3	2		83 76 
63	3	1		64 
64	3	1		76 
65	3	1		79 
66	3	1		78 
67	3	1		83 
68	3	1		77 
69	3	1		80 
70	3	1		76 
71	3	1		80 
72	3	1		79 
73	3	1		81 
74	3	1		87 
75	3	1		77 
76	3	1		102 
77	3	1		102 
78	3	1		102 
79	3	1		102 
80	3	1		102 
81	3	1		102 
82	3	1		102 
83	3	1		102 
84	3	1		102 
85	3	1		102 
86	3	1		102 
87	3	1		102 
88	3	1		102 
89	3	1		102 
90	3	1		102 
91	3	1		102 
92	3	1		102 
93	3	1		102 
94	3	1		102 
95	3	1		102 
96	3	1		102 
97	3	1		102 
98	3	1		102 
99	3	1		102 
100	3	1		102 
101	3	1		102 
102	1	0		
************************************************************************
REQUESTS/DURATIONS
jobnr.	mode	dur	R1	R2	N1	N2	
------------------------------------------------------------------------
1	1	0	0	0	0	0	
2	1	2	6	5	3	6	
	2	7	4	4	3	5	
	3	10	4	4	2	3	
3	1	3	8	4	8	7	
	2	4	5	2	8	4	
	3	10	4	2	6	1	
4	1	7	5	6	4	8	
	2	9	5	4	2	5	
	3	10	5	4	2	4	
5	1	7	4	2	4	9	
	2	8	4	1	4	7	
	3	9	4	1	4	6	
6	1	7	6	9	5	6	
	2	8	5	7	3	4	
	3	10	5	3	1	3	
7	1	4	9	6	5	6	
	2	5	5	5	5	4	
	3	9	2	5	4	4	
8	1	2	6	6	6	8	
	2	5	5	5	5	6	
	3	7	5	5	3	6	
9	1	2	9	7	5	6	
	2	4	9	5	3	6	
	3	9	8	4	3	6	
10	1	3	9	9	9	7	
	2	9	9	7	9	5	
	3	10	7	3	8	4	
11	1	3	3	6	4	6	
	2	4	3	5	2	5	
	3	5	1	5	1	5	
12	1	3	6	8	10	8	
	2	8	5	8	9	4	
	3	10	4	8	8	1	
13	1	3	7	2	9	8	
	2	4	7	1	5	5	
	3	5	7	1	3	3	
14	1	6	10	8	9	5	
	2	8	7	8	6	4	
	3	9	2	8	5	3	
15	1	4	8	6	6	5	
	2	7	8	6	5	3	
	3	10	5	6	1	3	
16	1	3	4	10	6	2	
	2	4	4	10	5	1	
	3	7	3	10	4	1	
17	1	3	7	9	9	7	
	2	7	7	8	7	6	
	3	9	4	8	7	5	
18	1	5	9	4	2	5	
	2	6	8	3	1	4	
	3	10	7	3	1	3	
19	1	6	7	3	7	9	
	2	7	6	2	5	8	
	3	9	6	2	4	8	
20	1	2	5	7	7	1	
	2	5	4	7	4	1	
	3	6	3	7	3	1	
21	1	2	8	8	8	5	
	2	3	6	8	8	4	
	3	6	6	8	6	4	
22	1	1	9	6	5	3	
	2	2	6	4	4	3	
	3	8	4	3	3	3	
23	1	7	6	8	9	8	
	2	8	6	5	9	6	
	3	9	6	4	7	2	
24	1	3	6	1	8	6	
	2	6	5	1	6	4	
	3	9	5	1	5	3	
25	1	2	7	3	9	4	
	2	6	7	1	8	4	
	3	7	5	1	7	3	
26	1	3	6	10	8	8	
	2	7	5	8	7	7	
	3	8	3	7	7	7	
27	1	4	10	4	8	7	
	2	5	9	3	8	7	
	3	6	8	1	6	7	
28	1	2	4	9	6	6	
	2	3	3	8	6	6	
	3	8	3	7	6	4	
29	1	2	5	3	6	7	
	2	8	5	2	5	7	
	3	10	4	2	4	7	
30	1	6	9	5	4	2	
	2	9	8	5	4	1	
	3	10	5	5	4	1	
31	1	3	8	7	4	7	
	2	4	5	7	4	7	
	3	5	4	3	3	7	
32	1	5	10	8	2	3	
	2	7	8	8	1	2	
	3	10	8	8	1	1	
33	1	4	9	3	8	10	
	2	7	8	3	7	7	
	3	8	8	1	5	5	
34	1	6	6	8	4	8	
	2	7	5	7	4	8	
	3	8	5	6	4	7	
35	1	5	7	4	7	10	
	2	6	7	4	6	8	
	3	8	7	4	5	7	
36	1	7	6	9	1	6	
	2	8	5	9	1	5	
	3	9	3	9	1	2	
37	1	2	5	4	8	4	
	2	5	4	4	6	3	
	3	10	3	3	4	2	
38	1	4	9	5	6	10	
	2	6	8	5	5	5	
	3	10	5	5	4	3	
39	1	1	6	5	7	3	
	2	6	4	5	6	2	
	3	10	3	5	3	2	
40	1	8	2	9	6	3	
	2	9	2	7	6	3	
	3	10	2	7	2	1	
41	1	3	8	9	7	2	
	2	6	6	8	7	2	
	3	10	3	8	5	2	
42	1	4	2	8	5	9	
	2	6	2	5	4	7	
	3	7	2	4	3	4	
43	1	1	10	9	3	8	
	2	2	9	4	2	6	
	3	10	9	4	2	1	
44	1	3	3	7	7	10	
	2	7	3	5	5	4	
	3	8	3	5	3	3	
45	1	4	6	2	7	10	
	2	5	4	2	5	7	
	3	10	3	1	5	5	
46	1	1	7	8	8	9	
	2	6	7	4	7	7	
	3	10	7	4	5	1	
47	1	3	10	5	4	9	
	2	7	8	5	4	9	
	3	10	8	5	4	8	
48	1	2	7	6	8	6	
	2	7	6	6	7	5	
	3	10	6	4	5	3	
49	1	4	8	4	8	4	
	2	5	8	3	7	3	
	3	8	7	3	4	1	
50	1	1	8	5	5	7	
	2	3	5	3	3	6	
	3	7	2	3	3	6	
51	1	1	7	3	7	1	
	2	4	6	2	4	1	
	3	8	6	2	3	1	
52	1	1	7	6	7	3	
	2	2	4	5	6	3	
	3	9	4	3	6	3	
53	1	2	9	10	7	7	
	2	4	6	6	6	7	
	3	5	1	4	6	4	
54	1	1	8	5	5	9	
	2	5	3	4	3	8	
	3	10	2	4	2	8	
55	1	3	6	2	4	6	
	2	4	5	1	4	4	
	3	5	5	1	4	2	
56	1	6	9	9	5	8	
	2	8	7	9	3	5	
	3	9	6	8	3	4	
57	1	4	7	10	4	8	
	2	7	6	10	3	7	
	3	8	4	10	3	5	
58	1	2	7	4	7	7	
	2	9	6	4	7	6	
	3	10	6	1	6	4	
59	1	1	8	8	9	9	
	2	4	4	8	6	9	
	3	10	1	7	6	9	
60	1	1	4	10	6	8	
	2	2	3	10	6	7	
	3	8	2	10	6	7	
61	1	5	6	9	8	6	
	2	7	5	8	5	5	
	3	8	2	6	3	4	
62	1	4	4	8	8	5	
	2	5	3	7	5	4	
	3	7	1	5	4	2	
63	1	1	9	8	7	5	
	2	4	7	7	5	4	
	3	6	6	6	3	3	
64	1	2	6	5	5	8	
	2	3	2	4	5	6	
	3	8	1	2	5	4	
65	1	4	8	5	7	7	
	2	8	8	5	7	6	
	3	10	7	5	5	5	
66	1	2	6	9	5	1	
	2	9	4	9	5	1	
	3	10	3	8	4	1	
67	1	4	6	5	8	3	
	2	6	6	4	6	3	
	3	7	3	3	5	3	
68	1	4	8	4	9	5	
	2	8	3	2	8	3	
	3	9	2	2	8	2	
69	1	7	5	5	8	10	
	2	8	2	4	7	7	
	3	9	2	1	7	6	
70	1	1	5	9	9	5	
	2	3	4	9	5	2	
	3	9	3	8	3	1	
71	1	1	7	7	5	6	
	2	2	7	6	4	5	
	3	8	4	6	2	2	
72	1	1	6	9	8	8	
	2	2	6	6	8	5	
	3	3	3	4	8	5	
73	1	1	6	5	7	7	
	2	4	6	4	4	6	
	3	8	6	1	2	6	
74	1	3	6	6	8	5	
	2	4	4	5	8	5	
	3	5	2	4	8	3	
75	1	4	7	8	3	4	
	2	6	5	4	2	2	
	3	8	2	2	2	2	
76	1	2	8	5	10	6	
	2	4	6	3	7	5	
	3	5	4	3	1	4	
77	1	1	7	4	4	7	
	2	4	6	3	3	5	
	3	7	3	2	1	4	
78	1	5	5	4	3	6	
	2	9	3	3	3	3	
	3	10	2	3	1	2	
79	1	4	4	5	8	8	
	2	6	4	3	8	7	
	3	9	4	3	8	6	
80	1	2	3	6	8	7	
	2	5	3	4	7	7	
	3	9	3	3	7	6	
81	1	4	7	5	3	3	
	2	5	4	4	3	3	
	3	8	3	4	2	3	
82	1	4	3	3	6	4	
	2	7	1	2	5	5	
	3	8	1	2	5	4	
83	1	3	6	5	4	6	
	2	5	6	4	4	5	
	3	8	6	4	4	3	
84	1	4	5	5	5	3	
	2	5	3	3	5	3	
	3	6	2	3	4	1	
85	1	4	4	9	8	5	
	2	5	2	7	7	2	
	3	9	1	5	7	1	
86	1	4	10	7	8	8	
	2	5	8	6	4	8	
	3	9	8	4	4	7	
87	1	3	5	7	7	6	
	2	5	3	7	6	6	
	3	10	2	7	5	3	
88	1	1	3	10	5	7	
	2	4	3	9	4	7	
	3	7	1	9	3	6	
89	1	2	8	5	4	6	
	2	4	8	4	4	4	
	3	8	7	3	4	4	
90	1	5	10	5	10	5	
	2	6	9	5	4	3	
	3	8	9	5	2	2	
91	1	3	8	10	4	10	
	2	4	7	9	3	5	
	3	6	2	9	3	1	
92	1	1	4	7	7	8	
	2	3	3	5	6	7	
	3	7	3	3	5	5	
93	1	1	9	2	6	5	
	2	3	8	2	5	4	
	3	7	6	2	4	4	
94	1	1	9	7	7	10	
	2	6	6	3	5	9	
	3	7	4	1	5	8	
95	1	3	8	4	8	6	
	2	5	6	3	6	4	
	3	10	3	3	5	4	
96	1	2	5	7	7	8	
	2	3	5	7	3	5	
	3	7	4	5	1	4	
97	1	1	8	9	7	5	
	2	3	6	7	4	5	
	3	9	4	4	2	3	
98	1	1	9	8	6	7	
	2	6	7	5	3	7	
	3	9	5	3	3	3	
99	1	1	9	8	7	8	
	2	3	4	6	6	5	
	3	7	1	4	4	4	
100	1	3	4	9	3	5	
	2	8	2	5	2	2	
	3	9	2	4	1	2	
101	1	5	3	9	6	9	
	2	9	3	7	3	8	
	3	10	3	4	2	8	
102	1	0	0	0	0	0	
************************************************************************

 RESOURCE AVAILABILITIES 
	R 1	R 2	N 1	N 2
	52	46	574	570

************************************************************************
